
List of user-set options:

                                    Name   Value                used
                           compl_inf_tol = 1                     yes
                         constr_viol_tol = 1                     yes
                            dual_inf_tol = 1000                  yes
                           linear_solver = ma97                  yes
                              ma86_small = 1e-30                  no
                                  ma86_u = 0.0001                 no
                              ma97_order = best                  yes
                              ma97_small = 1e-30                 yes
                            ma97_switch1 = at_start              yes
                            ma97_switch2 = od_hd_reuse           yes
                                  ma97_u = 1e-06                 yes
                               ma97_umax = 0.5                   yes
                                max_iter = 1000                  yes
                    max_refinement_steps = 20                    yes
                    min_refinement_steps = 5                     yes
                                 mu_init = 1e-06                 yes
           mu_superlinear_decrease_power = 1.25                  yes
                   nlp_scaling_min_value = 1e-08                 yes
                        option_file_name = Preset_Case:_24_pf.opt  yes
                             output_file = ./tmp/Preset_Case:_24_pf.output  yes
                      print_user_options = yes                   yes
        required_infeasibility_reduction = 1                      no
                                     tol = 1e-08                 yes
                   warm_start_bound_frac = 1e-20                 yes
                   warm_start_bound_push = 1e-20                 yes
                   warm_start_init_point = yes                   yes
              warm_start_mult_bound_push = 1e-20                 yes
                warm_start_mult_init_max = 1e+40                 yes
             warm_start_slack_bound_frac = 1e-20                 yes
             warm_start_slack_bound_push = 1e-20                 yes

******************************************************************************
This program contains Ipopt, a library for large-scale nonlinear optimization.
 Ipopt is released as open source code under the Eclipse Public License (EPL).
         For more information visit http://projects.coin-or.org/Ipopt
******************************************************************************

This is Ipopt version 3.12.10, running with linear solver ma97.

Number of nonzeros in equality constraint Jacobian...:   123443
Number of nonzeros in inequality constraint Jacobian.:      213
Number of nonzeros in Lagrangian Hessian.............:    49069

Total number of variables............................:    31591
                     variables with only lower bounds:    12912
                variables with lower and upper bounds:    15130
                     variables with only upper bounds:        0
Total number of equality constraints.................:    31483
Total number of inequality constraints...............:       25
        inequality constraints with only lower bounds:        4
   inequality constraints with lower and upper bounds:        0
        inequality constraints with only upper bounds:       21

iter    objective    inf_pr   inf_du lg(mu)  ||d||  lg(rg) alpha_du alpha_pr  ls
   0 -1.7213900e+00 4.02e-03 1.02e+00  -6.0 0.00e+00    -  0.00e+00 0.00e+00   0
   1 -1.7209522e+00 1.00e-02 1.02e+00  -6.0 7.84e+05    -  1.12e-04 4.76e-05h  6
   2 -1.7210015e+00 1.00e-02 4.99e+01  -6.0 2.62e+03    -  2.22e-01 1.91e-03h  1
   3 -1.7276831e+00 2.22e-01 7.01e+01  -6.0 2.60e+03    -  1.59e-01 2.59e-01f  1
   4 -1.7376923e+00 1.00e+00 3.01e+02  -6.0 2.30e+03    -  4.37e-01 6.25e-01f  1
   5 -1.7349715e+00 1.43e-02 1.79e+01  -6.0 1.64e+00  -4.0 9.76e-01 9.87e-01h  1
   6 -1.7349819e+00 2.49e-05 5.09e-02  -6.0 6.96e-01  -4.5 1.00e+00 1.00e+00f  1
   7 -1.7350819e+00 1.78e-04 1.88e-02  -6.0 1.87e+00  -5.0 1.00e+00 1.00e+00h  1
   8 -1.7353193e+00 1.19e-03 3.87e-01  -6.0 4.03e+00  -5.4 9.00e-01 1.00e+00h  1
   9 -1.7354901e+00 1.73e-03 6.94e+00  -6.0 9.30e+00  -5.9 1.00e+00 3.99e-01h  1
iter    objective    inf_pr   inf_du lg(mu)  ||d||  lg(rg) alpha_du alpha_pr  ls
  10 -1.7357360e+00 8.41e-03 2.86e+00  -6.0 9.23e+00  -6.4 6.77e-01 1.00e+00f  1
  11 -1.7359297e+00 1.40e-02 9.77e-01  -6.0 1.74e+01  -6.9 1.00e+00 7.23e-01h  1
  12 -1.7362305e+00 2.02e-02 8.51e-02  -6.0 3.20e+01  -7.3 1.00e+00 1.00e+00h  1
  13 -1.7367320e+00 1.46e-01 8.28e-01  -6.0 1.41e+02  -7.8 1.00e+00 1.00e+00h  1
  14 -1.7371414e+00 4.21e-02 2.56e-01  -6.0 6.78e+01  -7.4 1.00e+00 1.00e+00h  1
  15 -1.7392245e+00 1.05e+00 2.01e+01  -6.0 5.71e+02  -7.9 1.00e+00 5.82e-01h  1
  16 -1.7440238e+00 4.77e+00 8.81e+02  -6.0 8.15e+02    -  1.00e+00 1.00e+00h  1
  17 -1.7494999e+00 4.39e+00 4.80e+04  -6.0 9.06e+02  -7.4 6.50e-01 2.30e-01h  1
  18 -1.7572006e+00 2.73e+01 5.09e+04  -6.0 1.29e+03    -  5.07e-01 1.00e+00h  1
  19 -1.7647372e+00 2.29e+01 6.36e+04  -6.0 1.45e+03  -7.9 9.94e-01 2.18e-01h  1
iter    objective    inf_pr   inf_du lg(mu)  ||d||  lg(rg) alpha_du alpha_pr  ls
  20 -1.7721693e+00 8.06e+01 4.07e+04  -6.0 4.79e+03    -  2.21e-01 4.37e-01h  1
  21 -1.7701112e+00 8.10e+01 2.73e+05  -6.0 6.37e+03    -  2.45e-01 1.43e-01h  2
  22 -1.7704132e+00 6.79e+01 2.34e+05  -6.0 1.98e+03    -  6.91e-01 1.83e-01h  1
  23 -1.7703811e+00 5.70e+01 8.77e+04  -6.0 3.46e+02    -  2.79e-01 1.61e-01h  1
  24 -1.7684951e+00 3.68e+01 5.60e+04  -6.0 5.33e+02    -  4.05e-01 3.61e-01h  1
  25 -1.7655808e+00 6.31e+00 1.18e+03  -6.0 7.00e+02    -  9.50e-01 1.00e+00h  1
  26 -1.7660305e+00 2.36e+01 3.54e+02  -6.0 1.79e+03    -  9.21e-01 6.97e-01h  1
  27 -1.7656611e+00 2.27e+01 3.27e+02  -6.0 3.40e+03    -  7.41e-02 7.61e-02h  3
  28 -1.7657052e+00 2.10e+01 2.98e+02  -6.0 1.10e+03    -  3.96e-01 7.92e-02h  1
  29 -1.7654596e+00 4.64e+00 1.38e+01  -6.0 5.73e+02    -  8.90e-02 1.00e+00h  1
iter    objective    inf_pr   inf_du lg(mu)  ||d||  lg(rg) alpha_du alpha_pr  ls
  30 -1.7653842e+00 1.08e+00 1.92e-01  -6.0 2.79e+02    -  1.00e+00 1.00e+00h  1
  31 -1.7653548e+00 2.26e-01 3.09e-02  -6.0 1.28e+02    -  1.00e+00 1.00e+00h  1
  32 -1.7653438e+00 1.94e-06 4.52e-06  -6.0 6.02e-01    -  1.00e+00 1.00e+00h  1
  33 -1.7655733e+00 1.63e-02 1.51e+02  -7.5 2.45e+02    -  9.86e-01 4.66e-01h  1
  34 -1.7656245e+00 1.86e-02 2.57e+01  -7.5 1.37e+02    -  1.00e+00 8.77e-01h  1
  35 -1.7656124e+00 3.10e-04 5.83e-01  -7.5 1.59e+01    -  1.00e+00 1.00e+00h  1
  36 -1.7656121e+00 5.38e-10 6.44e-08  -7.5 2.09e-02    -  1.00e+00 1.00e+00h  1
  37 -1.7656139e+00 5.56e-05 8.40e-01  -9.0 8.05e+00    -  9.51e-01 8.59e-01h  1
  38 -1.7656141e+00 1.52e-06 2.66e-03  -9.0 1.14e+00    -  1.00e+00 1.00e+00f  1
  39 -1.7656141e+00 2.85e-10 5.24e-10  -9.0 1.01e-04    -  1.00e+00 1.00e+00h  1

Number of Iterations....: 39

                                   (scaled)                 (unscaled)
Objective...............:  -1.3793860096850785e+00   -1.7656140923969006e+00
Dual infeasibility......:   5.2381639303877847e-10    6.7048498308963643e-10
Constraint violation....:   2.8529009645124337e-10    2.8529009645124337e-10
Complementarity.........:   1.0248825549350161e-09    1.3118496703168205e-09
Overall NLP error.......:   1.0248825549350161e-09    1.3118496703168205e-09


Number of objective function evaluations             = 55
Number of objective gradient evaluations             = 40
Number of equality constraint evaluations            = 55
Number of inequality constraint evaluations          = 55
Number of equality constraint Jacobian evaluations   = 40
Number of inequality constraint Jacobian evaluations = 40
Number of Lagrangian Hessian evaluations             = 39
Total CPU secs in IPOPT (w/o function evaluations)   =     50.836
Total CPU secs in NLP function evaluations           =      0.882

EXIT: Optimal Solution Found.
